0 90 16 26 40 59 17 48 40 51 83 56 69 89 22
90 0 49 83 17 36 76 70 60 78 13 25 40 68 51
16 49 0 34 35 43 47 78 53 78 60 38 25 42 57
26 83 34 0 53 12 66 77 49 82 8 23 36 26 50
40 17 35 53 0 62 44 68 61 9 51 60 49 76 42
59 36 43 12 62 0 47 65 51 40 82 22 35 48 43
17 76 47 66 44 47 0 38 42 69 32 78 76 44 22
48 70 78 77 68 65 38 0 60 28 57 27 41 65 83
40 60 53 49 61 51 42 60 0 77 61 89 49 56 44
51 78 78 82 9 40 69 28 77 0 46 26 67 64 44
83 13 60 8 51 82 32 57 61 46 0 51 37 59 15
56 25 38 23 60 22 78 27 89 26 51 0 52 38 47
69 40 25 36 49 35 76 41 49 67 37 52 0 46 75
89 68 42 26 76 48 44 65 56 64 59 38 46 0 46
22 51 57 50 42 43 22 83 44 44 15 47 75 46 0